Welcome to the CBC MILP Solver 
Version: 2.10.7 
Build Date: Feb 14 2022 

command line - cbc inputs/new_no_tr/order/default30_default_input.lp sec 1800 solve solu solutions/new_no_tr/default30_default_input.lp (default strategy 1)
seconds was changed from 1e+100 to 1800
Continuous objective value is 25600 - 0.18 seconds
Cgl0002I 94 variables fixed
Cgl0003I 0 fixed, 20 tightened bounds, 618 strengthened rows, 0 substitutions
Cgl0003I 0 fixed, 5 tightened bounds, 127 strengthened rows, 0 substitutions
Cgl0003I 0 fixed, 9 tightened bounds, 73 strengthened rows, 0 substitutions
Cgl0003I 0 fixed, 2 tightened bounds, 9 strengthened rows, 0 substitutions
Cgl0004I processed model has 2919 rows, 984 columns (984 integer (953 of which binary)) and 9866 elements
Cutoff increment increased from 1e-05 to 0.9999
Cbc0045I 1 integer variables out of 984 objects (984 integer) have cost of 1 - high priority
Cbc0045I branch on satisfied Y create fake objective Y random cost Y
Cbc0038I Initial state - 504 integers unsatisfied sum - 151.032
Cbc0038I Pass   1: suminf.   75.10656 (497) obj. 33634 iterations 914
Cbc0038I Pass   2: suminf.   60.87350 (537) obj. 37373.8 iterations 532
Cbc0038I Pass   3: suminf.   58.63082 (549) obj. 37540 iterations 160
Cbc0038I Pass   4: suminf.   58.40548 (556) obj. 40047.1 iterations 56
Cbc0038I Pass   5: suminf.   59.46411 (550) obj. 40785.8 iterations 349
Cbc0038I Pass   6: suminf.   58.64515 (514) obj. 40842.7 iterations 141
Cbc0038I Pass   7: suminf.   58.03605 (523) obj. 40847.5 iterations 84
Cbc0038I Pass   8: suminf.   57.76534 (510) obj. 40847.5 iterations 45
Cbc0038I Pass   9: suminf.   56.68535 (516) obj. 40759.1 iterations 289
Cbc0038I Pass  10: suminf.   55.15616 (548) obj. 40686.7 iterations 188
Cbc0038I Pass  11: suminf.   55.32834 (535) obj. 40851.4 iterations 307
Cbc0038I Pass  12: suminf.   54.83827 (532) obj. 40473.4 iterations 113
Cbc0038I Pass  13: suminf.   54.61934 (506) obj. 41507.9 iterations 293
Cbc0038I Pass  14: suminf.   53.27442 (521) obj. 40957 iterations 162
Cbc0038I Pass  15: suminf.   53.47211 (509) obj. 40995.3 iterations 56
Cbc0038I Pass  16: suminf.   54.61882 (526) obj. 41489.3 iterations 340
Cbc0038I Pass  17: suminf.   53.61586 (536) obj. 40866.2 iterations 98
Cbc0038I Pass  18: suminf.   53.14479 (532) obj. 40854.1 iterations 9
Cbc0038I Pass  19: suminf.   53.57168 (534) obj. 40455.7 iterations 281
Cbc0038I Pass  20: suminf.   52.79196 (531) obj. 40962.8 iterations 119
Cbc0038I Pass  21: suminf.   53.88689 (530) obj. 41632.2 iterations 189
Cbc0038I Pass  22: suminf.   53.46489 (534) obj. 41499.4 iterations 54
Cbc0038I Pass  23: suminf.   53.20618 (533) obj. 40716.5 iterations 135
Cbc0038I Pass  24: suminf.   54.75887 (522) obj. 40722.9 iterations 200
Cbc0038I Pass  25: suminf.   53.82776 (531) obj. 41186.2 iterations 150
Cbc0038I Pass  26: suminf.   53.33506 (531) obj. 40771.1 iterations 44
Cbc0038I Pass  27: suminf.   54.27064 (542) obj. 40720.6 iterations 256
Cbc0038I Pass  28: suminf.   53.73893 (543) obj. 40689.7 iterations 64
Cbc0038I Pass  29: suminf.   53.37451 (510) obj. 40456 iterations 306
Cbc0038I Pass  30: suminf.   53.68017 (518) obj. 40439.7 iterations 22
Cbc0038I Pass  31: suminf.   60.06248 (501) obj. 42066.3 iterations 363
Cbc0038I Pass  32: suminf.   58.45404 (504) obj. 41295.5 iterations 192
Cbc0038I Pass  33: suminf.   55.76505 (525) obj. 40818.5 iterations 112
Cbc0038I Pass  34: suminf.   54.02005 (534) obj. 40545 iterations 102
Cbc0038I Pass  35: suminf.   53.33642 (555) obj. 40440.4 iterations 142
Cbc0038I Pass  36: suminf.   52.69946 (550) obj. 40616 iterations 117
Cbc0038I Pass  37: suminf.   55.31022 (540) obj. 40015.8 iterations 225
Cbc0038I Pass  38: suminf.   53.05991 (533) obj. 40616.5 iterations 225
Cbc0038I Pass  39: suminf.   52.41179 (537) obj. 40745.2 iterations 120
Cbc0038I Pass  40: suminf.   54.96584 (531) obj. 41101.4 iterations 359
Cbc0038I Pass  41: suminf.   52.73923 (516) obj. 40758.3 iterations 212
Cbc0038I Pass  42: suminf.   52.63515 (520) obj. 40505.4 iterations 89
Cbc0038I Pass  43: suminf.   53.66916 (521) obj. 41197.7 iterations 250
Cbc0038I Pass  44: suminf.   52.49084 (552) obj. 40612.9 iterations 247
Cbc0038I Pass  45: suminf.   52.21019 (515) obj. 40611.2 iterations 85
Cbc0038I Pass  46: suminf.   53.10489 (528) obj. 41261.9 iterations 194
Cbc0038I Pass  47: suminf.  105.60731 (565) obj. 54688.8 iterations 1099
Cbc0038I Pass  48: suminf.   58.12448 (542) obj. 56784 iterations 656
Cbc0038I Pass  49: suminf.   55.08425 (541) obj. 55965.6 iterations 226
Cbc0038I Pass  50: suminf.   55.10521 (554) obj. 55906.9 iterations 106
Cbc0038I Pass  51: suminf.   54.37325 (550) obj. 55788 iterations 211
Cbc0038I Pass  52: suminf.   53.88562 (570) obj. 55693.5 iterations 124
Cbc0038I Pass  53: suminf.   53.95735 (568) obj. 55660.5 iterations 61
Cbc0038I Pass  54: suminf.   53.33931 (559) obj. 56580 iterations 308
Cbc0038I Pass  55: suminf.   53.81185 (556) obj. 55864.3 iterations 126
Cbc0038I Pass  56: suminf.   54.11500 (556) obj. 56302.2 iterations 232
Cbc0038I Pass  57: suminf.   53.48997 (552) obj. 55876.7 iterations 139
Cbc0038I Pass  58: suminf.   54.91116 (560) obj. 56783.3 iterations 235
Cbc0038I Pass  59: suminf.   53.58599 (569) obj. 55810.6 iterations 146
Cbc0038I Pass  60: suminf.   53.24384 (566) obj. 55945.6 iterations 72
Cbc0038I Pass  61: suminf.   54.73704 (560) obj. 56704.5 iterations 237
Cbc0038I Pass  62: suminf.   53.70355 (560) obj. 55906.8 iterations 220
Cbc0038I Pass  63: suminf.   52.70641 (554) obj. 55856 iterations 77
Cbc0038I Pass  64: suminf.   53.35574 (557) obj. 55861.6 iterations 82
Cbc0038I Pass  65: suminf.   53.69052 (566) obj. 56176.7 iterations 165
Cbc0038I Pass  66: suminf.   52.98710 (563) obj. 55868.5 iterations 123
Cbc0038I Pass  67: suminf.   52.88649 (557) obj. 55871.8 iterations 70
Cbc0038I Pass  68: suminf.   53.26382 (561) obj. 56941 iterations 150
Cbc0038I Pass  69: suminf.   52.70641 (554) obj. 55856 iterations 99
Cbc0038I Pass  70: suminf.   53.35574 (557) obj. 55861.6 iterations 85
Cbc0038I Pass  71: suminf.   53.95789 (556) obj. 56764.1 iterations 261
Cbc0038I Pass  72: suminf.   53.74711 (560) obj. 55866.1 iterations 241
Cbc0038I Pass  73: suminf.   53.46108 (565) obj. 55904.5 iterations 71
Cbc0038I Pass  74: suminf.   53.94419 (561) obj. 56296.9 iterations 163
Cbc0038I Pass  75: suminf.   52.87326 (566) obj. 55806.9 iterations 140
Cbc0038I Pass  76: suminf.   52.57097 (558) obj. 55532.9 iterations 126
Cbc0038I Pass  77: suminf.   54.22203 (562) obj. 56753.7 iterations 306
Cbc0038I Pass  78: suminf.   53.23016 (561) obj. 55854.3 iterations 193
Cbc0038I Pass  79: suminf.   53.24384 (566) obj. 55945.6 iterations 77
Cbc0038I Pass  80: suminf.   54.18974 (555) obj. 56990.7 iterations 193
Cbc0038I Pass  81: suminf.   53.70355 (560) obj. 55906.8 iterations 107
Cbc0038I Pass  82: suminf.   52.70641 (554) obj. 55856 iterations 84
Cbc0038I Pass  83: suminf.   53.35574 (557) obj. 55861.6 iterations 100
Cbc0038I Pass  84: suminf.   53.73077 (575) obj. 56180.1 iterations 232
Cbc0038I Pass  85: suminf.   52.98710 (563) obj. 55868.5 iterations 136
Cbc0038I Pass  86: suminf.   52.88649 (557) obj. 55871.8 iterations 74
Cbc0038I Pass  87: suminf.   53.87657 (569) obj. 56736.8 iterations 213
Cbc0038I Pass  88: suminf.   53.35574 (557) obj. 55861.6 iterations 219
Cbc0038I Pass  89: suminf.   54.19835 (556) obj. 56888.7 iterations 267
Cbc0038I Pass  90: suminf.   53.16042 (563) obj. 55921.8 iterations 256
Cbc0038I Pass  91: suminf.   52.88649 (557) obj. 55871.8 iterations 128
Cbc0038I Pass  92: suminf.   54.73704 (560) obj. 56704.5 iterations 272
Cbc0038I Pass  93: suminf.   53.70355 (560) obj. 55906.8 iterations 238
Cbc0038I Pass  94: suminf.   52.70641 (554) obj. 55856 iterations 82
Cbc0038I Pass  95: suminf.   53.35574 (557) obj. 55861.6 iterations 87
Cbc0038I Pass  96: suminf.   53.73077 (575) obj. 56180.1 iterations 181
Cbc0038I Pass  97: suminf.   52.98710 (563) obj. 55868.5 iterations 137
Cbc0038I Pass  98: suminf.   52.88649 (557) obj. 55871.8 iterations 72
Cbc0038I Pass  99: suminf.   54.58383 (555) obj. 56627.3 iterations 306
Cbc0038I Pass 100: suminf.   90.75827 (538) obj. 55240.3 iterations 1213
Cbc0038I No solution found this major pass
Cbc0038I Before mini branch and bound, 64 integers at bound fixed and 0 continuous
Cbc0038I Full problem 2919 rows 984 columns, reduced to 2773 rows 918 columns - too large
Cbc0038I Mini branch and bound did not improve solution (3.52 seconds)
Cbc0038I After 3.52 seconds - Feasibility pump exiting - took 2.99 seconds
Cbc0031I 54 added rows had average density of 11.740741
Cbc0013I At root node, 54 cuts changed objective from 25600 to 25600 in 10 passes
Cbc0014I Cut generator 0 (Probing) - 11 row cuts average 3.6 elements, 2 column cuts (2 active)  in 0.062 seconds - new frequency is -100
Cbc0014I Cut generator 1 (Gomory) - 230 row cuts average 479.2 elements, 0 column cuts (0 active)  in 0.252 seconds - new frequency is 1
Cbc0014I Cut generator 2 (Knapsack) - 0 row cuts average 0.0 elements, 0 column cuts (0 active)  in 0.009 seconds - new frequency is -100
Cbc0014I Cut generator 3 (Clique) - 0 row cuts average 0.0 elements, 0 column cuts (0 active)  in 0.009 seconds - new frequency is -100
Cbc0014I Cut generator 4 (MixedIntegerRounding2) - 0 row cuts average 0.0 elements, 0 column cuts (0 active)  in 0.012 seconds - new frequency is -100
Cbc0014I Cut generator 5 (FlowCover) - 0 row cuts average 0.0 elements, 0 column cuts (0 active)  in 0.009 seconds - new frequency is -100
Cbc0014I Cut generator 6 (TwoMirCuts) - 159 row cuts average 14.7 elements, 0 column cuts (0 active)  in 0.102 seconds - new frequency is -100
Cbc0010I After 0 nodes, 1 on tree, 1e+50 best solution, best possible 25600 (8.79 seconds)
Cbc0010I After 100 nodes, 14 on tree, 1e+50 best solution, best possible 25613 (55.13 seconds)
Cbc0010I After 200 nodes, 35 on tree, 1e+50 best solution, best possible 25613 (94.16 seconds)
Cbc0010I After 300 nodes, 55 on tree, 1e+50 best solution, best possible 25613 (140.42 seconds)
Cbc0010I After 400 nodes, 71 on tree, 1e+50 best solution, best possible 25613 (184.46 seconds)
Cbc0010I After 500 nodes, 99 on tree, 1e+50 best solution, best possible 25613 (221.49 seconds)
Cbc0010I After 600 nodes, 120 on tree, 1e+50 best solution, best possible 25613 (254.68 seconds)
Cbc0010I After 700 nodes, 133 on tree, 1e+50 best solution, best possible 25613 (284.67 seconds)
Cbc0010I After 800 nodes, 131 on tree, 1e+50 best solution, best possible 25613 (309.37 seconds)
Cbc0010I After 900 nodes, 141 on tree, 1e+50 best solution, best possible 25613 (346.92 seconds)
Cbc0010I After 1000 nodes, 164 on tree, 1e+50 best solution, best possible 25613 (386.83 seconds)
Cbc0010I After 1100 nodes, 165 on tree, 1e+50 best solution, best possible 25614 (416.29 seconds)
Cbc0010I After 1200 nodes, 169 on tree, 1e+50 best solution, best possible 25614 (441.86 seconds)
Cbc0010I After 1300 nodes, 182 on tree, 1e+50 best solution, best possible 25614 (464.26 seconds)
Cbc0010I After 1400 nodes, 163 on tree, 1e+50 best solution, best possible 25614 (488.18 seconds)
Cbc0010I After 1500 nodes, 162 on tree, 1e+50 best solution, best possible 25614 (522.46 seconds)
Cbc0010I After 1600 nodes, 162 on tree, 1e+50 best solution, best possible 25614 (554.67 seconds)
Cbc0010I After 1700 nodes, 163 on tree, 1e+50 best solution, best possible 25614 (585.88 seconds)
Cbc0010I After 1800 nodes, 162 on tree, 1e+50 best solution, best possible 25614 (621.59 seconds)
Cbc0010I After 1900 nodes, 162 on tree, 1e+50 best solution, best possible 25614 (659.97 seconds)
Cbc0010I After 2000 nodes, 162 on tree, 1e+50 best solution, best possible 25614 (701.42 seconds)
Cbc0010I After 2100 nodes, 162 on tree, 1e+50 best solution, best possible 25614 (734.97 seconds)
Cbc0010I After 2200 nodes, 162 on tree, 1e+50 best solution, best possible 25614 (773.89 seconds)
Cbc0010I After 2300 nodes, 162 on tree, 1e+50 best solution, best possible 25614 (809.16 seconds)
Cbc0010I After 2400 nodes, 163 on tree, 1e+50 best solution, best possible 25614 (845.95 seconds)
Cbc0010I After 2500 nodes, 162 on tree, 1e+50 best solution, best possible 25614 (883.97 seconds)
Cbc0010I After 2600 nodes, 162 on tree, 1e+50 best solution, best possible 25614 (920.97 seconds)
Cbc0010I After 2700 nodes, 162 on tree, 1e+50 best solution, best possible 25614 (961.60 seconds)
Cbc0010I After 2800 nodes, 163 on tree, 1e+50 best solution, best possible 25614 (996.63 seconds)
Cbc0010I After 2900 nodes, 162 on tree, 1e+50 best solution, best possible 25614 (1035.05 seconds)
Cbc0010I After 3000 nodes, 162 on tree, 1e+50 best solution, best possible 25614 (1068.82 seconds)
Cbc0010I After 3100 nodes, 162 on tree, 1e+50 best solution, best possible 25614 (1097.33 seconds)
Cbc0010I After 3200 nodes, 162 on tree, 1e+50 best solution, best possible 25614 (1126.43 seconds)
Cbc0010I After 3300 nodes, 162 on tree, 1e+50 best solution, best possible 25614 (1158.14 seconds)
Cbc0010I After 3400 nodes, 162 on tree, 1e+50 best solution, best possible 25614 (1185.08 seconds)
Cbc0010I After 3500 nodes, 162 on tree, 1e+50 best solution, best possible 25614 (1213.78 seconds)
Cbc0010I After 3600 nodes, 162 on tree, 1e+50 best solution, best possible 25614 (1241.83 seconds)
Cbc0010I After 3700 nodes, 163 on tree, 1e+50 best solution, best possible 25614 (1271.17 seconds)
Cbc0010I After 3800 nodes, 162 on tree, 1e+50 best solution, best possible 25614 (1298.39 seconds)
Cbc0010I After 3900 nodes, 162 on tree, 1e+50 best solution, best possible 25614 (1326.44 seconds)
Cbc0010I After 4000 nodes, 162 on tree, 1e+50 best solution, best possible 25614 (1353.53 seconds)
Cbc0010I After 4100 nodes, 162 on tree, 1e+50 best solution, best possible 25614 (1381.18 seconds)
Cbc0010I After 4200 nodes, 162 on tree, 1e+50 best solution, best possible 25614 (1408.74 seconds)
Cbc0010I After 4300 nodes, 162 on tree, 1e+50 best solution, best possible 25614 (1435.99 seconds)
Cbc0010I After 4400 nodes, 162 on tree, 1e+50 best solution, best possible 25614 (1461.08 seconds)
Cbc0010I After 4500 nodes, 162 on tree, 1e+50 best solution, best possible 25614 (1488.41 seconds)
Cbc0010I After 4600 nodes, 162 on tree, 1e+50 best solution, best possible 25614 (1514.81 seconds)
Cbc0010I After 4700 nodes, 162 on tree, 1e+50 best solution, best possible 25614 (1542.52 seconds)
Cbc0010I After 4800 nodes, 162 on tree, 1e+50 best solution, best possible 25614 (1572.79 seconds)
Cbc0010I After 4900 nodes, 163 on tree, 1e+50 best solution, best possible 25614 (1601.21 seconds)
Cbc0010I After 5000 nodes, 162 on tree, 1e+50 best solution, best possible 25614 (1630.35 seconds)
Cbc0010I After 5100 nodes, 161 on tree, 1e+50 best solution, best possible 25616 (1659.16 seconds)
Cbc0010I After 5200 nodes, 161 on tree, 1e+50 best solution, best possible 25616 (1689.10 seconds)
Cbc0010I After 5300 nodes, 161 on tree, 1e+50 best solution, best possible 25616 (1712.89 seconds)
Cbc0010I After 5400 nodes, 161 on tree, 1e+50 best solution, best possible 25616 (1736.51 seconds)
Cbc0010I After 5500 nodes, 161 on tree, 1e+50 best solution, best possible 25616 (1759.56 seconds)
Cbc0010I After 5600 nodes, 161 on tree, 1e+50 best solution, best possible 25616 (1782.75 seconds)
Cbc0020I Exiting on maximum time
Cbc0005I Partial search - best objective 1e+50 (best possible 25616), took 8447421 iterations and 5671 nodes (1799.80 seconds)
Cbc0032I Strong branching done 18606 times (1443308 iterations), fathomed 2183 nodes and fixed 1483 variables
Cbc0035I Maximum depth 2289, 0 variables fixed on reduced cost
Cuts at root node changed objective from 25600 to 25600
Probing was tried 10 times and created 13 cuts of which 0 were active after adding rounds of cuts (0.062 seconds)
Gomory was tried 1080 times and created 3219 cuts of which 0 were active after adding rounds of cuts (4.928 seconds)
Knapsack was tried 10 times and created 0 cuts of which 0 were active after adding rounds of cuts (0.009 seconds)
Clique was tried 10 times and created 0 cuts of which 0 were active after adding rounds of cuts (0.009 seconds)
MixedIntegerRounding2 was tried 10 times and created 0 cuts of which 0 were active after adding rounds of cuts (0.012 seconds)
FlowCover was tried 10 times and created 0 cuts of which 0 were active after adding rounds of cuts (0.009 seconds)
TwoMirCuts was tried 10 times and created 159 cuts of which 0 were active after adding rounds of cuts (0.102 seconds)
ZeroHalf was tried 1 times and created 0 cuts of which 0 were active after adding rounds of cuts (0.023 seconds)

Result - Stopped on time limit

No feasible solution found
Lower bound:                    25616.000
Enumerated nodes:               5671
Total iterations:               8447421
Time (CPU seconds):             1799.80
Time (Wallclock seconds):       1811.80

Total time (CPU seconds):       1799.81   (Wallclock seconds):       1811.82

